(set-logic QF_UF)
(declare-sort S 0)
(declare-fun f (S) S)
(declare-fun x1 () S)
(declare-fun x2 () S)
(declare-fun x3 () S)
(declare-fun x4 () S)
(declare-fun x5 () S)

(assert (= x1 x2))
(assert (= x4 x5))
(assert (= x2 x4))
(assert (not (= x1 x5)))
(check-sat)
